p cnf 91 377
3 19 23 -50 51 -68 0
-14 -31 57 -73 -78 79 0
-15 29 -30 -31 57 58 0
4 19 23 51 68 -91 0
1 7 42 45 -87 0
-4 -61 -63 82 -84 0
7 8 9 -48 55 0
7 9 -47 -48 55 0
-11 -14 -15 76 80 0
12 -31 -73 78 -79 0
13 -16 -51 67 85 0
13 49 67 -68 -86 0
13 49 67 -68 91 0
-16 -19 -51 67 85 0
42 -43 45 46 -87 0
-5 52 -63 78 -84 0
11 12 -31 57 -80 0
19 23 -33 -76 -80 0
2 -61 65 -74 0
3 24 -26 56 0
-3 -16 -19 -23 0
-3 -19 -68 -86 0
-6 -35 56 61 0
7 9 46 -47 0
-7 -42 -60 83 0
-8 -42 -60 -83 0
10 20 21 -72 0
10 20 -21 -72 0
13 58 -78 -79 0
-17 22 -41 -72 0
-18 -19 -38 -54 0
19 -65 74 75 0
-19 -23 -28 -34 0
-19 -24 -26 -59 0
-19 51 67 91 0
20 21 22 -77 0
-21 69 70 88 0
22 41 53 71 0
-25 -27 -33 -59 0
-29 30 58 -73 0
38 54 70 72 0
57 58 -73 80 0
3 19 28 59 0
3 -50 -66 89 0
-5 -36 -63 -65 0
8 -45 -48 55 0
9 -43 46 -87 0
10 11 12 57 0
10 -42 -60 83 0
11 26 -28 -31 0
13 -16 -49 -51 0
13 67 85 -86 0
19 23 -30 -36 0
19 23 39 60 0
-19 -23 79 -84 0
22 -44 71 -72 0
25 -65 -74 75 0
30 36 -63 82 0
-31 58 -76 -80 0
38 70 72 -88 0
41 53 -54 70 0
52 -61 -78 82 0
1 2 59 0
1 -7 -42 0
1 10 -42 0
1 10 69 0
1 24 59 0
-1 3 56 0
-1 -24 -25 0
-1 -83 -88 0
-2 -5 -6 0
-2 -5 52 0
-2 -6 82 0
-2 35 52 0
3 16 17 0
3 23 59 0
3 51 -91 0
-3 -16 66 0
-3 50 66 0
4 16 51 0
4 23 -65 0
4 -50 91 0
4 -78 84 0
-4 78 84 0
5 -78 -84 0
-5 -6 62 0
6 -36 -37 0
6 74 -82 0
7 40 45 0
7 -40 46 0
-7 -42 83 0
-8 38 -70 0
-8 -45 48 0
-8 47 -64 0
-8 -83 87 0
-9 -40 43 0
-9 -45 48 0
10 11 26 0
10 21 -42 0
10 21 -72 0
10 -21 -72 0
10 26 -27 0
10 -69 -70 0
-10 -26 -73 0
11 -73 76 0
-12 -23 73 0
-13 -49 90 0
-13 -67 68 0
15 25 30 0
15 -29 73 0
-16 -49 -68 0
-16 -50 66 0
17 18 69 0
17 44 77 0
17 -44 -71 0
17 -44 -72 0
-17 -21 -77 0
-17 -39 -40 0
18 47 64 0
-18 -19 -47 0
19 42 69 0
19 47 64 0
-19 -39 -44 0
-19 -40 -64 0
-19 62 84 0
-19 85 86 0
-19 -85 90 0
-19 86 -89 0
-20 70 77 0
21 22 -72 0
21 23 -77 0
22 44 -77 0
-22 -41 53 0
23 26 34 0
23 32 56 0
-23 25 -32 0
-23 -40 80 0
-23 43 -87 0
24 -32 -59 0
25 27 34 0
25 32 33 0
-25 -36 -65 0
27 -34 57 0
-27 -31 -57 0
-27 -32 -34 0
-29 78 80 0
32 -56 61 0
-33 -36 37 0
34 -57 -76 0
-35 37 -74 0
-35 56 -61 0
-35 59 82 0
36 -37 63 0
37 62 -63 0
38 -53 -88 0
-38 53 54 0
-39 -48 -55 0
40 45 60 0
-42 60 83 0
43 44 87 0
45 46 -55 0
-47 55 64 0
50 -66 -89 0
51 -81 -85 0
-51 68 -89 0
-58 76 -80 0
66 86 -89 0
66 86 90 0
-66 86 90 0
-66 86 -90 0
68 89 90 0
-69 -70 88 0
1 2 0
1 -7 0
1 9 0
1 24 0
1 27 0
1 41 0
1 -42 0
1 -62 0
1 -87 0
1 88 0
-1 -11 0
-1 -30 0
-1 32 0
-1 50 0
-1 -70 0
2 3 0
2 5 0
2 6 0
2 -32 0
2 56 0
-2 -65 0
3 -5 0
3 -26 0
3 -51 0
3 -62 0
3 -78 0
3 -91 0
-3 -4 0
-3 -39 0
-3 44 0
-3 -47 0
-3 62 0
-3 -86 0
4 8 0
4 10 0
4 19 0
4 25 0
4 -34 0
4 52 0
4 -52 0
4 -53 0
4 61 0
4 63 0
4 -68 0
4 79 0
4 89 0
4 -91 0
-4 61 0
-4 70 0
-4 -78 0
5 33 0
5 -62 0
5 63 0
5 78 0
5 -82 0
-5 29 0
-5 61 0
-5 -65 0
-5 74 0
6 35 0
6 62 0
6 -62 0
-6 37 0
-6 -61 0
-6 74 0
7 8 0
7 40 0
7 48 0
-7 -45 0
-7 -60 0
-7 83 0
-7 87 0
8 9 0
8 -10 0
8 -45 0
8 -46 0
8 -67 0
8 83 0
-8 42 0
-8 -42 0
-8 53 0
-8 -64 0
-8 -87 0
9 40 0
9 -47 0
9 -83 0
10 11 0
10 12 0
10 -57 0
10 -60 0
10 -69 0
10 -70 0
10 81 0
10 83 0
-10 -11 0
-10 -12 0
-10 15 0
-10 26 0
-10 27 0
-10 -83 0
-10 -88 0
11 14 0
11 15 0
11 -28 0
11 34 0
11 74 0
-11 -19 0
-11 31 0
-11 -57 0
12 13 0
12 -19 0
12 -28 0
12 32 0
12 34 0
12 -73 0
12 -78 0
-12 -13 0
-12 31 0
-12 -57 0
-12 -58 0
-12 -78 0
-12 -79 0
13 -14 0
13 -31 0
13 -49 0
13 69 0
13 84 0
13 85 0
13 89 0
13 91 0
-13 28 0
-13 64 0
-13 86 0
14 31 0
14 -57 0
14 -58 0
14 -78 0
14 79 0
-14 -19 0
-14 -33 0
-14 49 0
-14 -76 0
-14 78 0
15 -57 0
15 -58 0
-15 -29 0
16 49 0
16 50 0
-16 -50 0
-16 67 0
-16 -89 0
17 19 0
17 38 0
17 39 0
17 -71 0
17 -72 0
-17 -18 0
-17 -48 0
-17 57 0
-17 77 0
18 21 0
18 40 0
18 54 0
-18 42 0
-18 -60 0
-18 -69 0
-18 81 0
19 32 0
19 34 0
19 40 0
19 41 0
19 -51 0
19 54 0
19 -74 0
19 -75 0
-19 -21 0
-19 -27 0
-19 30 0
-19 39 0
-19 -41 0
-19 -53 0
-19 -56 0
-19 -60 0
-19 -77 0
-19 -86 0
-19 89 0
-19 -89 0
20 -38 0
20 -54 0
20 64 0
20 -70 0
-20 -22 0
-20 71 0
-20 72 0
21 23 0
21 -42 0
21 70 0
21 88 0
-21 -88 0
22 -53 0
22 69 0
22 -69 0
-22 41 0
23 36 0
23 41 0
